Version identifier: 12.10.0.0 | 2019-11-26 | 843d4de
CPXPARAM_WorkMem                                 28672
Tried aggregator 2 times.
MIP Presolve modified 12 coefficients.
Aggregator did 45 substitutions.
Reduced MIP has 245 rows, 300 columns, and 1215 nonzeros.
Reduced MIP has 300 binaries, 0 generals, 0 SOSs, and 0 indicators.
Presolve time = 0,00 sec. (1,22 ticks)
Found incumbent of value 4015,000000 after 0,00 sec. (2,28 ticks)
Probing time = 0,00 sec. (0,49 ticks)
Tried aggregator 1 time.
Detecting symmetries...
MIP Presolve eliminated 50 rows and 0 columns.
MIP Presolve added 100 rows and 0 columns.
Reduced MIP has 295 rows, 300 columns, and 1265 nonzeros.
Reduced MIP has 300 binaries, 0 generals, 0 SOSs, and 0 indicators.
Presolve time = 0,00 sec. (1,46 ticks)
Probing time = 0,00 sec. (0,48 ticks)
Clique table members: 852.
MIP emphasis: balance optimality and feasibility.
MIP search method: dynamic search.
Parallel mode: deterministic, using up to 16 threads.
Root relaxation solution time = 0,00 sec. (1,40 ticks)

        Nodes                                         Cuts/
   Node  Left     Objective  IInf  Best Integer    Best Bound    ItCnt     Gap

*     0+    0                         4015,0000        0,0000           100,00%
*     0+    0                         2351,0000        0,0000           100,00%
      0     0      806,9000   228     2351,0000      806,9000      138   65,68%
      0     0      812,4244   228     2351,0000     Cuts: 173      196   65,44%
      0     0      818,4760   228     2351,0000     Cuts: 173      280   65,19%
      0     0      823,5953   228     2351,0000     Cuts: 173      333   64,97%
      0     0      829,6788   228     2351,0000     Cuts: 138      429   64,71%
      0     0      838,4514   228     2351,0000     Cuts: 173      566   64,34%
      0     0      844,4443   228     2351,0000     Cuts: 115      634   64,08%
      0     0      846,6174   228     2351,0000       Cuts: 8      662   63,99%
      0     0      848,6449   228     2351,0000      Cuts: 25      704   63,90%
*     0+    0                         2148,0000      848,6449            60,49%
      0     0      851,8650   228     2148,0000      Cuts: 46      796   55,04%
      0     0      852,8935   228     2148,0000     Cuts: 152      890   55,04%
      0     2      852,8935   300     2148,0000      965,8048      890   55,04%
Elapsed time = 0,27 sec. (154,38 ticks, tree = 0,02 MB, solutions = 3)
   3070  1953     1640,6501   208     2148,0000     1300,5040    96756   39,46%

Performing restart 1

Repeating presolve.
Tried aggregator 1 time.
Reduced MIP has 295 rows, 300 columns, and 1265 nonzeros.
Reduced MIP has 300 binaries, 0 generals, 0 SOSs, and 0 indicators.
Presolve time = 0,00 sec. (0,73 ticks)
Tried aggregator 1 time.
Reduced MIP has 295 rows, 300 columns, and 1265 nonzeros.
Reduced MIP has 300 binaries, 0 generals, 0 SOSs, and 0 indicators.
Presolve time = 0,00 sec. (1,03 ticks)
Represolve time = 0,01 sec. (7,58 ticks)
   4390     0      876,2742   300     2148,0000      Cuts: 41   186497   30,76%
   4390     0      891,0118   300     2148,0000      Cuts: 16   186599   30,76%
   4390     0      903,4878   300     2148,0000      Cuts: 17   186727   30,76%
   4390     0      913,1667   300     2148,0000      Cuts: 21   186869   30,76%
   4390     0      923,2024   300     2148,0000      Cuts: 17   186988   30,76%
   4390     2      923,2024   298     2148,0000     1487,3718   186988   30,76%
   4399     9     1071,5899   271     2148,0000     1487,3718   188811   30,76%
   5353   593        cutoff           2148,0000     1487,3718   232019   30,76%
   6524  1578     1516,1093   241     2148,0000     1487,3718   282219   30,76%
   8314  2673     2033,5441   109     2148,0000     1487,3718   329098   30,76%
   9991  4256     1342,8553   234     2148,0000     1487,3718   389865   30,76%

Performing restart 2

Repeating presolve.
Tried aggregator 1 time.
Reduced MIP has 295 rows, 300 columns, and 1265 nonzeros.
Reduced MIP has 300 binaries, 0 generals, 0 SOSs, and 0 indicators.
Presolve time = 0,00 sec. (0,73 ticks)
Tried aggregator 1 time.
Reduced MIP has 295 rows, 300 columns, and 1265 nonzeros.
Reduced MIP has 300 binaries, 0 generals, 0 SOSs, and 0 indicators.
Presolve time = 0,00 sec. (1,03 ticks)
Represolve time = 0,02 sec. (12,53 ticks)
   9998     0      948,7368   300     2148,0000      Cuts: 21   404321   30,76%
   9998     0      957,2627   300     2148,0000      Cuts: 20   404473   30,76%
   9998     0      958,6239   300     2148,0000      Cuts: 24   404569   30,76%
   9998     0      960,7538   300     2148,0000      Cuts: 13   404664   30,76%
   9998     0      963,3786   300     2148,0000      Cuts: 54   404774   30,76%
   9998     0      965,3014   300     2148,0000      Cuts: 32   404870   30,76%
   9998     0      968,7750   300     2148,0000      Cuts: 68   405033   30,76%
   9998     2      968,7750   300     2148,0000     1487,3718   405033   30,76%
  11584   943     1936,7143   114     2148,0000     1487,3718   445849   30,76%
  19181  5542     1941,8678   163     2148,0000     1645,8483   712204   23,38%
Elapsed time = 4,90 sec. (3981,57 ticks, tree = 15,13 MB, solutions = 3)
  27565  9745     2130,9175    85     2148,0000     1777,1697   990335   17,26%
  36608 13184     2131,4000     9     2148,0000     1859,5524  1278822   13,43%
* 38312+13584                         2141,0000     1873,2400            12,51%
* 43111+14150                         2124,0000     1907,7610            10,18%
  45383 12935     2117,9333    41     2124,0000     1928,8762  1560077    9,19%
  54393  9447        cutoff           2124,0000     2026,2094  1838759    4,60%

GUB cover cuts applied:  2
Clique cuts applied:  60
Cover cuts applied:  496
Flow cuts applied:  12
Mixed integer rounding cuts applied:  136
Zero-half cuts applied:  43
Lift and project cuts applied:  20
Gomory fractional cuts applied:  32

Root node processing (before b&c):
  Real time             =    0,25 sec. (154,05 ticks)
Parallel b&c, 16 threads:
  Real time             =   11,01 sec. (8190,25 ticks)
  Sync time (average)   =    3,05 sec.
  Wait time (average)   =    0,01 sec.
                          ------------
Total (root+branch&cut) =   11,26 sec. (8344,30 ticks)
